0001011001100100011
0001011001100100111
0001011011000000011
0001011011000000111
0001110001100000111
0001111001100000111
0010110011100000011
0010111001000000011
0011110010101010111
0011110011100000101
0011111010101010111
0011111010101100111
